(declare-const ghost_forward__miss (_ BitVec 1))
(declare-const ghost_if_info__miss (_ BitVec 1))
(declare-const ghost_ipv4_lpm__hitAction (_ BitVec 10))
(declare-const ghost_ipv4_lpm__miss (_ BitVec 1))
(declare-const ghost_nat__miss (_ BitVec 1))
(declare-const ghost_send_frame__miss (_ BitVec 1))
(declare-const ghost_send_to_cpu__miss (_ BitVec 1))
(declare-const row_forward__action (_ BitVec 1))
(declare-const row_forward__nhop_ipv4 (_ BitVec 32))
(declare-const row_if_info__action (_ BitVec 1))
(declare-const row_if_info__data__is_ext (_ BitVec 1))
(declare-const row_if_info__meta__if_index (_ BitVec 9))
(declare-const row_ipv4_lpm__action (_ BitVec 1))
(declare-const row_ipv4_lpm__id (_ BitVec 10))
(declare-const row_ipv4_lpm__meta_ipv4 (_ BitVec 32))
(declare-const row_ipv4_lpm__meta_ipv4Mask (_ BitVec 32))
(declare-const row_ipv4_lpm__nhop_ipv4 (_ BitVec 32))
(declare-const row_ipv4_lpm__port (_ BitVec 9))
(declare-const row_nat__action (_ BitVec 3))
(declare-const row_nat__data__dstAddr (_ BitVec 32))
(declare-const row_nat__dstPort (_ BitVec 32))
(declare-const row_nat__dstPortMask (_ BitVec 32))
(declare-const row_nat__ipv4__dstAddr (_ BitVec 32))
(declare-const row_nat__ipv4__dstAddrMask (_ BitVec 32))
(declare-const row_nat__ipv4__isValid (_ BitVec 1))
(declare-const row_nat__ipv4__srcAddr (_ BitVec 32))
(declare-const row_nat__ipv4__srcAddrMask (_ BitVec 32))
(declare-const row_nat__meta__is_ext_if (_ BitVec 1))
(declare-const row_nat__tcp__isValid (_ BitVec 1))
(declare-const row_nat__tcp__srcPort (_ BitVec 32))
(declare-const row_nat__tcp__srcPortMask (_ BitVec 32))
(declare-const row_send_frame__action (_ BitVec 1))
(declare-const row_send_frame__standard_metadata__egress_port (_ BitVec 9))

(simplify (forall ((cpu_header__if_index (_ BitVec 9))
         (ipv4__dstAddr (_ BitVec 32))
         (ipv4__srcAddr (_ BitVec 32))
         (ipv4__ttl (_ BitVec 8))
         (meta__do_forward (_ BitVec 1))
         (meta__ipv4_da (_ BitVec 32))
         (meta__is_ext_if (_ BitVec 1))
         (meta__nhop_ipv4 (_ BitVec 32))
         (standard_metadata__egress_spec (_ BitVec 9))
         (standard_metadata__ingress_port (_ BitVec 9))
         (tcp__dstPort (_ BitVec 32))
         (tcp__srcPort (_ BitVec 32)))
  (let ((a!1 (and (or (not (= row_forward__action #b0))
                      (= row_ipv4_lpm__port #b000000000))
                  (not (= row_forward__action #b0))))
        (a!3 (and (or (not (= row_forward__action #b0))
                      (not (= ghost_forward__miss #b0))
                      (not (= meta__nhop_ipv4 row_forward__nhop_ipv4)))
                  (not (= ghost_forward__miss #b1))))
        (a!6 (= (bvnot (bvor (bvnot meta__ipv4_da)
                             (bvnot row_ipv4_lpm__meta_ipv4Mask)))
                (bvnot (bvor (bvnot row_ipv4_lpm__meta_ipv4)
                             (bvnot row_ipv4_lpm__meta_ipv4Mask)))))
        (a!12 (= (bvnot (bvor (bvnot tcp__dstPort) (bvnot row_nat__dstPortMask)))
                 (bvnot (bvor (bvnot row_nat__dstPort)
                              (bvnot row_nat__dstPortMask)))))
        (a!14 (= (bvnot (bvor (bvnot tcp__srcPort)
                              (bvnot row_nat__tcp__srcPortMask)))
                 (bvnot (bvor (bvnot row_nat__tcp__srcPort)
                              (bvnot row_nat__tcp__srcPortMask)))))
        (a!16 (= (bvnot (bvor (bvnot ipv4__dstAddr)
                              (bvnot row_nat__ipv4__dstAddrMask)))
                 (bvnot (bvor (bvnot row_nat__ipv4__dstAddr)
                              (bvnot row_nat__ipv4__dstAddrMask)))))
        (a!18 (= (bvnot (bvor (bvnot ipv4__srcAddr)
                              (bvnot row_nat__ipv4__srcAddrMask)))
                 (bvnot (bvor (bvnot row_nat__ipv4__srcAddr)
                              (bvnot row_nat__ipv4__srcAddrMask)))))
        (a!21 (and (or (not (= row_forward__action #b0))
                       (= standard_metadata__egress_spec #b000000000))
                   (not (= row_forward__action #b0))))
        (a!27 (= (bvnot (bvor (bvnot row_nat__data__dstAddr)
                              (bvnot row_ipv4_lpm__meta_ipv4Mask)))
                 (bvnot (bvor (bvnot row_ipv4_lpm__meta_ipv4)
                              (bvnot row_ipv4_lpm__meta_ipv4Mask))))))
  (let ((a!2 (and (or a!1
                      (not (= ghost_forward__miss #b0))
                      (not (= row_ipv4_lpm__nhop_ipv4 row_forward__nhop_ipv4)))
                  (or (not (= ghost_forward__miss #b1))
                      (= row_ipv4_lpm__port #b000000000))))
        (a!22 (and (or (not (= ghost_forward__miss #b0))
                       (not (= meta__nhop_ipv4 row_forward__nhop_ipv4))
                       a!21)
                   (or (not (= ghost_forward__miss #b1))
                       (= standard_metadata__egress_spec #b000000000)))))
  (let ((a!4 (and (or (not (= row_ipv4_lpm__action #b0)) a!2)
                  (or (not (= row_ipv4_lpm__action #b1)) a!3))))
  (let ((a!5 (or a!4
                 (not (= ghost_ipv4_lpm__hitAction row_ipv4_lpm__id))
                 (not (= row_ipv4_lpm__meta_ipv4Mask #x00000000))
                 (not (= ghost_ipv4_lpm__miss #b0))))
        (a!7 (or a!4
                 (not (= ghost_ipv4_lpm__hitAction row_ipv4_lpm__id))
                 (not (= row_ipv4_lpm__meta_ipv4Mask #x00000000))
                 (not (= ghost_ipv4_lpm__miss #b0))
                 (not a!6))))
  (let ((a!8 (and a!5 a!7 (or (not (= ghost_ipv4_lpm__miss #b1)) a!3)))
        (a!23 (and a!5 a!7 (or (not (= ghost_ipv4_lpm__miss #b1)) a!22)))
        (a!28 (and a!5
                   (or a!4
                       (not (= ghost_ipv4_lpm__hitAction row_ipv4_lpm__id))
                       (not (= row_ipv4_lpm__meta_ipv4Mask #x00000000))
                       (not (= ghost_ipv4_lpm__miss #b0))
                       (not a!27))
                   (or (not (= ghost_ipv4_lpm__miss #b1)) a!22))))
  (let ((a!9 (and (or (not (= ipv4__ttl #x00)) a!8) (not (= ipv4__ttl #x00))))
        (a!24 (and (or (not (= ipv4__ttl #x00)) a!23)
                   (or (not (= ipv4__ttl #x00))
                       (= standard_metadata__egress_spec #b000000000))))
        (a!26 (and (or (not (= ipv4__ttl #x00)) a!23)
                   (or (not (= ipv4__ttl #x00))
                       (= standard_metadata__egress_spec #b000000000))
                   (= standard_metadata__egress_spec #b000000000)))
        (a!29 (and (or (not (= ipv4__ttl #x00)) a!28)
                   (or (not (= ipv4__ttl #x00))
                       (= standard_metadata__egress_spec #b000000000))
                   (= standard_metadata__egress_spec #b000000000))))
  (let ((a!10 (and (or (not (= meta__do_forward #b1)) a!9)
                   (not (= meta__do_forward #b1))))
        (a!25 (and (or (not (= meta__do_forward #b1)) a!24)
                   (or (not (= meta__do_forward #b1))
                       (= standard_metadata__egress_spec #b000000000)))))
  (let ((a!11 (and (or (not (= row_nat__action #b000)) a!10)
                   (or (not (= row_nat__action #b001)) a!10)
                   (not (= row_nat__action #b011))
                   (not (= row_nat__action #b100))
                   (not (= row_nat__action #b101))))
        (a!30 (and (or (not (= row_nat__action #b000)) a!10)
                   (or (not (= row_nat__action #b001)) a!25)
                   (or (not (= row_nat__action #b011)) a!26)
                   (or (not (= row_nat__action #b100)) a!29)
                   (or (not (= row_nat__action #b101)) a!26))))
  (let ((a!13 (and (or a!11
                       (not (= ghost_nat__miss #b0))
                       (not (= row_nat__dstPortMask #x00000000)))
                   (or a!11
                       (not (= ghost_nat__miss #b0))
                       (not (= row_nat__dstPortMask #x00000000))
                       (not a!12))))
        (a!31 (and (or (not (= ghost_nat__miss #b0))
                       (not (= row_nat__dstPortMask #x00000000))
                       a!30)
                   (or (not (= ghost_nat__miss #b0))
                       (not (= row_nat__dstPortMask #x00000000))
                       (not a!12)
                       a!30))))
  (let ((a!15 (and (or (not (= row_nat__tcp__srcPortMask #x00000000)) a!13)
                   (or a!13
                       (not (= row_nat__tcp__srcPortMask #x00000000))
                       (not a!14))))
        (a!32 (and (or (not (= row_nat__tcp__srcPortMask #x00000000)) a!31)
                   (or (not (= row_nat__tcp__srcPortMask #x00000000))
                       (not a!14)
                       a!31))))
  (let ((a!17 (and (or (not (= row_nat__ipv4__dstAddrMask #x00000000)) a!15)
                   (or a!15
                       (not (= row_nat__ipv4__dstAddrMask #x00000000))
                       (not a!16))))
        (a!33 (and (or (not (= row_nat__ipv4__dstAddrMask #x00000000)) a!32)
                   (or (not (= row_nat__ipv4__dstAddrMask #x00000000))
                       (not a!16)
                       a!32))))
  (let ((a!19 (and (or (not (= row_nat__ipv4__srcAddrMask #x00000000)) a!17)
                   (or a!17
                       (not (= row_nat__ipv4__srcAddrMask #x00000000))
                       (not a!18))))
        (a!34 (and (or (not (= row_nat__ipv4__srcAddrMask #x00000000)) a!33)
                   (or (not (= row_nat__ipv4__srcAddrMask #x00000000))
                       (not a!18)
                       a!33))))
  (let ((a!20 (and (or a!19
                       (not (= row_nat__tcp__isValid #b1))
                       (not (= row_nat__ipv4__isValid #b1)))
                   (or (not (= ghost_nat__miss #b1)) a!10)))
        (a!35 (and (or (not (= row_nat__tcp__isValid #b1))
                       (not (= row_nat__ipv4__isValid #b1))
                       a!34)
                   (or (not (= ghost_nat__miss #b1)) a!25)))
        (a!39 (and (or a!19
                       (not (= row_nat__ipv4__isValid #b1))
                       (not (= row_nat__tcp__isValid #b0)))
                   (or (not (= ghost_nat__miss #b1)) a!10)))
        (a!40 (and (or (not (= row_nat__ipv4__isValid #b1))
                       a!34
                       (not (= row_nat__tcp__isValid #b0)))
                   (or (not (= ghost_nat__miss #b1)) a!25)))
        (a!45 (and (or a!19
                       (not (= row_nat__tcp__isValid #b0))
                       (not (= row_nat__ipv4__isValid #b0)))
                   (or (not (= ghost_nat__miss #b1)) a!10)))
        (a!46 (and (or a!34
                       (not (= row_nat__tcp__isValid #b0))
                       (not (= row_nat__ipv4__isValid #b0)))
                   (or (not (= ghost_nat__miss #b1)) a!25))))
  (let ((a!36 (and (or a!20
                       (not (= meta__is_ext_if row_nat__meta__is_ext_if))
                       (not (= row_if_info__action #b0)))
                   (or a!35
                       (not (= row_if_info__data__is_ext
                               row_nat__meta__is_ext_if))
                       (not (= row_if_info__action #b1)))))
        (a!37 (or (not (= meta__is_ext_if row_nat__meta__is_ext_if))
                  a!35
                  (not (= ghost_if_info__miss #b1))))
        (a!41 (and (or (not (= meta__is_ext_if row_nat__meta__is_ext_if))
                       (not (= row_if_info__action #b0))
                       a!39)
                   (or (not (= row_if_info__data__is_ext
                               row_nat__meta__is_ext_if))
                       (not (= row_if_info__action #b1))
                       a!40)))
        (a!42 (or (not (= meta__is_ext_if row_nat__meta__is_ext_if))
                  (not (= ghost_if_info__miss #b1))
                  a!40))
        (a!47 (and (or (not (= meta__is_ext_if row_nat__meta__is_ext_if))
                       (not (= row_if_info__action #b0))
                       a!45)
                   (or (not (= row_if_info__data__is_ext
                               row_nat__meta__is_ext_if))
                       (not (= row_if_info__action #b1))
                       a!46)))
        (a!48 (or (not (= meta__is_ext_if row_nat__meta__is_ext_if))
                  (not (= ghost_if_info__miss #b1))
                  a!46)))
  (let ((a!38 (and (or a!36
                       (not (= ghost_if_info__miss #b0))
                       (not (= row_if_info__meta__if_index cpu_header__if_index)))
                   a!37))
        (a!43 (and (or (not (= ghost_if_info__miss #b0))
                       (not (= row_if_info__meta__if_index cpu_header__if_index))
                       a!41)
                   a!42))
        (a!49 (and (or (not (= ghost_if_info__miss #b0))
                       (not (= row_if_info__meta__if_index cpu_header__if_index))
                       a!47)
                   a!48))
        (a!51 (and (or a!36
                       (not (= ghost_if_info__miss #b0))
                       (not (= row_if_info__meta__if_index
                               standard_metadata__ingress_port)))
                   a!37))
        (a!52 (and (or (not (= ghost_if_info__miss #b0))
                       a!41
                       (not (= row_if_info__meta__if_index
                               standard_metadata__ingress_port)))
                   a!42))
        (a!54 (and (or (not (= ghost_if_info__miss #b0))
                       a!47
                       (not (= row_if_info__meta__if_index
                               standard_metadata__ingress_port)))
                   a!48)))

    (and a!38 a!43 a!49 a!51 a!52))))))))))))))))))
```
